pure_adt/tip2015_weird_nat_mul3acc_comm12.smt2
(set-logic HORN)
(declare-datatypes ((Nat_214 0)) (((zero_24 ) (succ_24 (p_66 Nat_214)))))
(declare-fun diseqNat_214 (Nat_214 Nat_214) Bool)
(declare-fun p_67 (Nat_214 Nat_214) Bool)
(declare-fun iszero_24 (Nat_214) Bool)
(declare-fun issucc_24 (Nat_214) Bool)
(assert (forall ((x_15387 Nat_214))
	(p_67 x_15387 (succ_24 x_15387))))
(assert (iszero_24 zero_24))
(assert (forall ((x_15389 Nat_214))
	(issucc_24 (succ_24 x_15389))))
(assert (forall ((x_15390 Nat_214))
	(diseqNat_214 zero_24 (succ_24 x_15390))))
(assert (forall ((x_15391 Nat_214))
	(diseqNat_214 (succ_24 x_15391) zero_24)))
(assert (forall ((x_15392 Nat_214) (x_15393 Nat_214))
	(=> (diseqNat_214 x_15392 x_15393)
	    (diseqNat_214 (succ_24 x_15392) (succ_24 x_15393)))))
(declare-fun plus_22 (Nat_214 Nat_214 Nat_214) Bool)
(assert (forall ((x_15293 Nat_214) (z_648 Nat_214) (y_610 Nat_214))
	(=> (plus_22 x_15293 z_648 y_610)
	    (plus_22 (succ_24 x_15293) (succ_24 z_648) y_610))))
(assert (forall ((x_15294 Nat_214))
	(plus_22 x_15294 zero_24 x_15294)))
(declare-fun addacc_4 (Nat_214 Nat_214 Nat_214 Nat_214) Bool)
(assert (forall ((x_15295 Nat_214) (x_15281 Nat_214) (y_611 Nat_214) (z_649 Nat_214))
	(=> (addacc_4 x_15295 x_15281 (succ_24 y_611) z_649)
	    (addacc_4 x_15295 (succ_24 x_15281) y_611 z_649))))
(assert (forall ((x_15297 Nat_214) (x_15282 Nat_214) (z_649 Nat_214))
	(=> (addacc_4 x_15297 zero_24 x_15282 (succ_24 z_649))
	    (addacc_4 x_15297 zero_24 (succ_24 x_15282) z_649))))
(assert (forall ((x_15299 Nat_214))
	(addacc_4 x_15299 zero_24 zero_24 x_15299)))
(declare-fun mulacc_0 (Nat_214 Nat_214 Nat_214 Nat_214) Bool)
(assert (forall ((x_15300 Nat_214) (x_15301 Nat_214) (x_15302 Nat_214) (x_15303 Nat_214) (x_15304 Nat_214) (x_15305 Nat_214) (x_15306 Nat_214) (fail_2 Nat_214))
	(=>	(and (mulacc_0 x_15300 zero_24 zero_24 zero_24)
			(mulacc_0 x_15301 (succ_24 zero_24) zero_24 zero_24)
			(mulacc_0 x_15302 zero_24 (succ_24 zero_24) zero_24)
			(mulacc_0 x_15303 zero_24 zero_24 (succ_24 zero_24))
			(addacc_4 x_15304 x_15301 x_15302 x_15303)
			(addacc_4 x_15305 (succ_24 zero_24) (succ_24 zero_24) (succ_24 zero_24))
			(addacc_4 x_15306 x_15300 x_15304 x_15305)
			(plus_22 fail_2 (succ_24 zero_24) x_15306))
		(mulacc_0 (succ_24 zero_24) (succ_24 zero_24) (succ_24 zero_24) (succ_24 zero_24)))))
(assert (forall ((x_15309 Nat_214) (x_15310 Nat_214) (x_15311 Nat_214) (x_15312 Nat_214) (x_15313 Nat_214) (x_15314 Nat_214) (x_15315 Nat_214) (fail_2 Nat_214) (x_15286 Nat_214) (x_15285 Nat_214) (x_15284 Nat_214))
	(=>	(and (diseqNat_214 x_15284 zero_24)
			(mulacc_0 x_15309 x_15284 x_15285 x_15286)
			(mulacc_0 x_15310 (succ_24 zero_24) x_15285 x_15286)
			(mulacc_0 x_15311 x_15284 (succ_24 zero_24) x_15286)
			(mulacc_0 x_15312 x_15284 x_15285 (succ_24 zero_24))
			(addacc_4 x_15313 x_15310 x_15311 x_15312)
			(addacc_4 x_15314 (succ_24 x_15284) (succ_24 x_15285) (succ_24 x_15286))
			(addacc_4 x_15315 x_15309 x_15313 x_15314)
			(plus_22 fail_2 (succ_24 zero_24) x_15315))
		(mulacc_0 fail_2 (succ_24 x_15284) (succ_24 x_15285) (succ_24 x_15286)))))
(assert (forall ((x_15318 Nat_214) (x_15319 Nat_214) (x_15320 Nat_214) (x_15321 Nat_214) (x_15322 Nat_214) (x_15323 Nat_214) (x_15324 Nat_214) (fail_2 Nat_214) (x_15286 Nat_214) (x_15285 Nat_214))
	(=>	(and (diseqNat_214 x_15285 zero_24)
			(mulacc_0 x_15318 zero_24 x_15285 x_15286)
			(mulacc_0 x_15319 (succ_24 zero_24) x_15285 x_15286)
			(mulacc_0 x_15320 zero_24 (succ_24 zero_24) x_15286)
			(mulacc_0 x_15321 zero_24 x_15285 (succ_24 zero_24))
			(addacc_4 x_15322 x_15319 x_15320 x_15321)
			(addacc_4 x_15323 (succ_24 zero_24) (succ_24 x_15285) (succ_24 x_15286))
			(addacc_4 x_15324 x_15318 x_15322 x_15323)
			(plus_22 fail_2 (succ_24 zero_24) x_15324))
		(mulacc_0 fail_2 (succ_24 zero_24) (succ_24 x_15285) (succ_24 x_15286)))))
(assert (forall ((x_15327 Nat_214) (x_15328 Nat_214) (x_15329 Nat_214) (x_15330 Nat_214) (x_15331 Nat_214) (x_15332 Nat_214) (x_15333 Nat_214) (fail_2 Nat_214) (x_15286 Nat_214) (x_15285 Nat_214) (x_15284 Nat_214))
	(=>	(and (diseqNat_214 x_15284 zero_24)
			(mulacc_0 x_15327 x_15284 x_15285 x_15286)
			(mulacc_0 x_15328 (succ_24 zero_24) x_15285 x_15286)
			(mulacc_0 x_15329 x_15284 (succ_24 zero_24) x_15286)
			(mulacc_0 x_15330 x_15284 x_15285 (succ_24 zero_24))
			(addacc_4 x_15331 x_15328 x_15329 x_15330)
			(addacc_4 x_15332 (succ_24 x_15284) (succ_24 x_15285) (succ_24 x_15286))
			(addacc_4 x_15333 x_15327 x_15331 x_15332)
			(plus_22 fail_2 (succ_24 zero_24) x_15333))
		(mulacc_0 fail_2 (succ_24 x_15284) (succ_24 x_15285) (succ_24 x_15286)))))
(assert (forall ((x_15336 Nat_214) (x_15337 Nat_214) (x_15338 Nat_214) (x_15339 Nat_214) (x_15340 Nat_214) (x_15341 Nat_214) (x_15342 Nat_214) (fail_2 Nat_214) (x_15286 Nat_214))
	(=>	(and (diseqNat_214 x_15286 zero_24)
			(mulacc_0 x_15336 zero_24 zero_24 x_15286)
			(mulacc_0 x_15337 (succ_24 zero_24) zero_24 x_15286)
			(mulacc_0 x_15338 zero_24 (succ_24 zero_24) x_15286)
			(mulacc_0 x_15339 zero_24 zero_24 (succ_24 zero_24))
			(addacc_4 x_15340 x_15337 x_15338 x_15339)
			(addacc_4 x_15341 (succ_24 zero_24) (succ_24 zero_24) (succ_24 x_15286))
			(addacc_4 x_15342 x_15336 x_15340 x_15341)
			(plus_22 fail_2 (succ_24 zero_24) x_15342))
		(mulacc_0 fail_2 (succ_24 zero_24) (succ_24 zero_24) (succ_24 x_15286)))))
(assert (forall ((x_15345 Nat_214) (x_15346 Nat_214) (x_15347 Nat_214) (x_15348 Nat_214) (x_15349 Nat_214) (x_15350 Nat_214) (x_15351 Nat_214) (fail_2 Nat_214) (x_15286 Nat_214) (x_15285 Nat_214) (x_15284 Nat_214))
	(=>	(and (diseqNat_214 x_15284 zero_24)
			(mulacc_0 x_15345 x_15284 x_15285 x_15286)
			(mulacc_0 x_15346 (succ_24 zero_24) x_15285 x_15286)
			(mulacc_0 x_15347 x_15284 (succ_24 zero_24) x_15286)
			(mulacc_0 x_15348 x_15284 x_15285 (succ_24 zero_24))
			(addacc_4 x_15349 x_15346 x_15347 x_15348)
			(addacc_4 x_15350 (succ_24 x_15284) (succ_24 x_15285) (succ_24 x_15286))
			(addacc_4 x_15351 x_15345 x_15349 x_15350)
			(plus_22 fail_2 (succ_24 zero_24) x_15351))
		(mulacc_0 fail_2 (succ_24 x_15284) (succ_24 x_15285) (succ_24 x_15286)))))
(assert (forall ((x_15354 Nat_214) (x_15355 Nat_214) (x_15356 Nat_214) (x_15357 Nat_214) (x_15358 Nat_214) (x_15359 Nat_214) (x_15360 Nat_214) (fail_2 Nat_214) (x_15286 Nat_214) (x_15285 Nat_214))
	(=>	(and (diseqNat_214 x_15285 zero_24)
			(mulacc_0 x_15354 zero_24 x_15285 x_15286)
			(mulacc_0 x_15355 (succ_24 zero_24) x_15285 x_15286)
			(mulacc_0 x_15356 zero_24 (succ_24 zero_24) x_15286)
			(mulacc_0 x_15357 zero_24 x_15285 (succ_24 zero_24))
			(addacc_4 x_15358 x_15355 x_15356 x_15357)
			(addacc_4 x_15359 (succ_24 zero_24) (succ_24 x_15285) (succ_24 x_15286))
			(addacc_4 x_15360 x_15354 x_15358 x_15359)
			(plus_22 fail_2 (succ_24 zero_24) x_15360))
		(mulacc_0 fail_2 (succ_24 zero_24) (succ_24 x_15285) (succ_24 x_15286)))))
(assert (forall ((x_15363 Nat_214) (x_15364 Nat_214) (x_15365 Nat_214) (x_15366 Nat_214) (x_15367 Nat_214) (x_15368 Nat_214) (x_15369 Nat_214) (fail_2 Nat_214) (x_15286 Nat_214) (x_15285 Nat_214) (x_15284 Nat_214))
	(=>	(and (diseqNat_214 x_15284 zero_24)
			(mulacc_0 x_15363 x_15284 x_15285 x_15286)
			(mulacc_0 x_15364 (succ_24 zero_24) x_15285 x_15286)
			(mulacc_0 x_15365 x_15284 (succ_24 zero_24) x_15286)
			(mulacc_0 x_15366 x_15284 x_15285 (succ_24 zero_24))
			(addacc_4 x_15367 x_15364 x_15365 x_15366)
			(addacc_4 x_15368 (succ_24 x_15284) (succ_24 x_15285) (succ_24 x_15286))
			(addacc_4 x_15369 x_15363 x_15367 x_15368)
			(plus_22 fail_2 (succ_24 zero_24) x_15369))
		(mulacc_0 fail_2 (succ_24 x_15284) (succ_24 x_15285) (succ_24 x_15286)))))
(assert (forall ((x_15285 Nat_214) (x_15284 Nat_214))
	(mulacc_0 zero_24 (succ_24 x_15284) (succ_24 x_15285) zero_24)))
(assert (forall ((x_15284 Nat_214) (z_650 Nat_214))
	(mulacc_0 zero_24 (succ_24 x_15284) zero_24 z_650)))
(assert (forall ((y_612 Nat_214) (z_650 Nat_214))
	(mulacc_0 zero_24 zero_24 y_612 z_650)))
(assert (forall ((x_15375 Nat_214) (x_15376 Nat_214) (x_15287 Nat_214) (y_613 Nat_214) (z_651 Nat_214))
	(=>	(and true
			(diseqNat_214 x_15375 x_15376)
			(mulacc_0 x_15375 x_15287 y_613 z_651)
			(mulacc_0 x_15376 y_613 x_15287 z_651))
		false)))
(assert (forall ((x_15377 Nat_214) (x_15378 Nat_214) (x_15379 Nat_214) (x_15380 Nat_214) (x_15288 Nat_214) (y_614 Nat_214) (z_652 Nat_214))
	(=>	(and true
			(diseqNat_214 x_15378 x_15380)
			(plus_22 x_15377 y_614 z_652)
			(plus_22 x_15378 x_15288 x_15377)
			(plus_22 x_15379 x_15288 y_614)
			(plus_22 x_15380 x_15379 z_652))
		false)))
(assert (forall ((x_15381 Nat_214) (x_15382 Nat_214) (x_15289 Nat_214) (y_615 Nat_214))
	(=>	(and true
			(diseqNat_214 x_15381 x_15382)
			(plus_22 x_15381 x_15289 y_615)
			(plus_22 x_15382 y_615 x_15289))
		false)))
(assert (forall ((x_15383 Nat_214) (x_15290 Nat_214))
	(=>	(and true
			(diseqNat_214 x_15383 x_15290)
			(plus_22 x_15383 x_15290 zero_24))
		false)))
(assert (forall ((x_15384 Nat_214) (x_15291 Nat_214))
	(=>	(and true
			(diseqNat_214 x_15384 x_15291)
			(plus_22 x_15384 zero_24 x_15291))
		false)))
(check-sat)
